p tw 724 1738
0 1
1 3
1 2
2 3
2 6
2 5
2 4
3 9
3 8
3 7
4 6
4 5
4 11
5 6
5 103
5 102
5 101
5 22
5 24
5 33
5 35
5 44
5 46
5 100
6 106
6 105
6 104
6 22
6 24
6 33
6 35
6 44
6 46
6 100
7 9
7 8
7 16
8 9
8 57
8 56
8 55
8 23
8 25
8 34
8 36
8 45
8 47
8 54
9 60
9 59
9 58
9 23
9 25
9 34
9 36
9 45
9 47
9 54
10 13
10 12
10 11
11 13
11 12
12 13
12 110
12 109
12 108
12 27
12 29
12 38
12 40
12 49
12 51
12 107
13 113
13 112
13 111
13 27
13 29
13 38
13 40
13 49
13 51
13 107
15 18
15 17
15 16
16 18
16 17
17 18
17 64
17 63
17 62
17 28
17 30
17 39
17 41
17 50
17 52
17 61
18 67
18 66
18 65
18 28
18 30
18 39
18 41
18 50
18 52
18 61
20 21
21 23
21 22
22 23
22 24
23 25
24 29
25 30
26 28
26 27
27 28
27 29
28 30
31 32
32 34
32 33
33 34
33 35
34 36
35 40
36 41
37 39
37 38
38 39
38 40
39 41
42 43
43 45
43 44
44 45
44 46
45 47
46 51
47 52
48 50
48 49
49 50
49 51
50 52
53 54
55 57
55 56
55 62
56 57
56 645
56 644
56 643
56 642
57 648
57 647
57 646
57 642
58 60
58 59
58 65
59 60
59 72
59 71
59 70
59 69
60 75
60 74
60 73
60 69
62 64
62 63
63 64
63 652
63 651
63 650
63 649
64 655
64 654
64 653
64 649
65 67
65 66
66 67
66 79
66 78
66 77
66 76
67 82
67 81
67 80
67 76
68 69
70 72
70 71
70 77
71 72
71 84
72 84
73 75
73 74
73 80
74 75
74 89
74 88
74 87
74 86
75 92
75 91
75 90
75 86
77 79
77 78
78 79
80 82
80 81
81 82
81 95
81 94
81 93
82 98
82 97
82 96
83 84
85 86
87 89
87 88
87 93
88 89
88 163
88 162
88 593
88 362
88 414
88 573
88 587
88 592
89 166
89 165
89 594
89 362
89 414
89 573
89 587
89 592
90 92
90 91
90 96
91 92
91 363
91 415
91 574
91 588
91 723
92 363
92 415
92 574
92 588
92 723
93 95
93 94
94 95
94 169
94 168
94 595
94 369
94 416
94 580
94 589
95 172
95 171
95 596
95 369
95 416
95 580
95 589
96 98
96 97
97 98
97 370
97 417
97 581
97 590
98 370
98 417
98 581
98 590
99 100
101 103
101 102
101 108
102 103
102 118
102 117
102 116
102 115
103 121
103 120
103 119
103 115
104 106
104 105
104 111
105 106
105 666
105 665
105 664
105 663
106 669
106 668
106 667
106 663
108 110
108 109
109 110
109 125
109 124
109 123
109 122
110 128
110 127
110 126
110 122
111 113
111 112
112 113
112 673
112 672
112 671
112 670
113 676
113 675
113 674
113 670
114 115
116 118
116 117
116 123
117 118
117 133
117 132
117 131
117 130
118 136
118 135
118 134
118 130
119 121
119 120
119 126
120 121
120 147
120 146
120 145
120 144
121 150
121 149
121 148
121 144
123 125
123 124
124 125
124 139
124 138
124 137
125 142
125 141
125 140
126 128
126 127
127 128
127 153
127 152
127 151
128 156
128 155
128 154
129 130
131 133
131 132
131 137
132 133
132 177
132 176
132 175
132 174
133 180
133 179
133 178
133 174
134 136
134 135
134 140
135 136
135 188
136 188
137 139
137 138
138 139
138 183
138 182
138 181
139 186
139 185
139 184
140 142
140 141
141 142
143 144
145 147
145 146
145 151
146 147
146 158
147 158
148 150
148 149
148 154
149 150
149 163
149 162
149 161
149 160
150 166
150 165
150 164
150 160
151 153
151 152
152 153
154 156
154 155
155 156
155 169
155 168
155 167
156 172
156 171
156 170
157 158
159 160
161 163
161 162
161 167
162 163
162 593
162 193
162 192
162 691
162 632
162 685
162 690
163 593
163 196
163 195
163 692
163 632
163 685
163 690
164 166
164 165
164 170
165 166
165 594
165 207
165 206
165 701
165 633
165 686
165 700
166 594
166 210
166 209
166 702
166 633
166 686
166 700
167 169
167 168
168 169
168 595
168 199
168 198
168 693
168 639
168 687
169 595
169 202
169 201
169 694
169 639
169 687
170 172
170 171
171 172
171 596
171 213
171 212
171 703
171 640
171 688
172 596
172 216
172 215
172 704
172 640
172 688
173 174
175 177
175 176
175 181
176 177
176 193
176 192
176 191
176 190
177 196
177 195
177 194
177 190
178 180
178 179
178 184
179 180
179 207
179 206
179 205
179 204
180 210
180 209
180 208
180 204
181 183
181 182
182 183
182 199
182 198
182 197
183 202
183 201
183 200
184 186
184 185
185 186
185 213
185 212
185 211
186 216
186 215
186 214
187 188
189 190
191 193
191 192
191 197
192 193
192 691
192 696
193 691
193 696
194 196
194 195
194 200
195 196
195 692
195 698
196 692
196 698
197 199
197 198
198 199
198 693
199 693
200 202
200 201
201 202
201 694
202 694
203 204
205 207
205 206
205 211
206 207
206 701
206 706
207 701
207 706
208 210
208 209
208 214
209 210
209 702
209 708
210 702
210 708
211 213
211 212
212 213
212 703
213 703
214 216
214 215
215 216
215 704
216 704
217 218
218 220
218 219
219 220
219 223
219 222
219 221
220 226
220 225
220 224
221 223
221 222
221 228
222 223
222 601
222 600
222 599
222 239
222 241
222 251
222 253
222 262
222 264
222 273
222 275
222 284
222 286
222 295
222 297
222 306
222 308
222 317
222 319
222 328
222 330
222 339
222 341
222 350
222 352
222 598
223 604
223 603
223 602
223 239
223 241
223 251
223 253
223 262
223 264
223 273
223 275
223 284
223 286
223 295
223 297
223 306
223 308
223 317
223 319
223 328
223 330
223 339
223 341
223 350
223 352
223 598
224 226
224 225
224 233
225 226
225 363
225 362
225 361
225 240
225 242
225 252
225 254
225 263
225 265
225 274
225 276
225 285
225 287
225 296
225 298
225 307
225 309
225 318
225 320
225 329
225 331
225 340
225 342
225 351
225 353
225 360
226 366
226 365
226 364
226 240
226 242
226 252
226 254
226 263
226 265
226 274
226 276
226 285
226 287
226 296
226 298
226 307
226 309
226 318
226 320
226 329
226 331
226 340
226 342
226 351
226 353
226 360
227 230
227 229
227 228
228 230
228 229
229 230
229 608
229 607
229 606
229 243
229 244
229 256
229 258
229 267
229 269
229 278
229 280
229 289
229 291
229 300
229 302
229 311
229 313
229 322
229 324
229 333
229 335
229 344
229 346
229 355
229 357
229 605
230 611
230 610
230 609
230 243
230 244
230 256
230 258
230 267
230 269
230 278
230 280
230 289
230 291
230 300
230 302
230 311
230 313
230 322
230 324
230 333
230 335
230 344
230 346
230 355
230 357
230 605
232 235
232 234
232 233
233 235
233 234
234 235
234 370
234 369
234 368
234 246
234 247
234 257
234 259
234 268
234 270
234 279
234 281
234 290
234 292
234 301
234 303
234 312
234 314
234 323
234 325
234 334
234 336
234 345
234 347
234 356
234 358
234 367
235 373
235 372
235 371
235 246
235 247
235 257
235 259
235 268
235 270
235 279
235 281
235 290
235 292
235 301
235 303
235 312
235 314
235 323
235 325
235 334
235 336
235 345
235 347
235 356
235 358
235 367
237 238
238 240
238 239
239 240
239 241
240 242
241 244
242 247
243 244
246 247
249 250
250 252
250 251
251 252
251 253
252 254
253 258
254 259
255 257
255 256
256 257
256 258
257 259
260 261
261 263
261 262
262 263
262 264
263 265
264 269
265 270
266 268
266 267
267 268
267 269
268 270
271 272
272 274
272 273
273 274
273 275
274 276
275 280
276 281
277 279
277 278
278 279
278 280
279 281
282 283
283 285
283 284
284 285
284 286
285 287
286 291
287 292
288 290
288 289
289 290
289 291
290 292
293 294
294 296
294 295
295 296
295 297
296 298
297 302
298 303
299 301
299 300
300 301
300 302
301 303
304 305
305 307
305 306
306 307
306 308
307 309
308 313
309 314
310 312
310 311
311 312
311 313
312 314
315 316
316 318
316 317
317 318
317 319
318 320
319 324
320 325
321 323
321 322
322 323
322 324
323 325
326 327
327 329
327 328
328 329
328 330
329 331
330 335
331 336
332 334
332 333
333 334
333 335
334 336
337 338
338 340
338 339
339 340
339 341
340 342
341 346
342 347
343 345
343 344
344 345
344 346
345 347
348 349
349 351
349 350
350 351
350 352
351 353
352 357
353 358
354 356
354 355
355 356
355 357
356 358
359 360
361 363
361 362
361 368
362 363
362 414
362 382
362 407
362 413
363 415
363 382
363 407
363 413
364 366
364 365
364 371
365 366
365 383
365 408
365 719
366 383
366 408
366 719
368 370
368 369
369 370
369 416
369 391
369 410
370 417
370 391
370 410
371 373
371 372
372 373
372 392
372 411
373 392
373 411
374 375
375 377
375 376
376 377
376 380
376 379
376 378
377 383
377 382
377 381
378 380
378 379
378 385
379 380
379 601
379 600
379 614
379 396
379 398
379 613
380 604
380 603
380 615
380 396
380 398
380 613
381 383
381 382
381 390
382 383
382 407
382 397
382 399
382 406
383 408
383 397
383 399
383 406
384 387
384 386
384 385
385 387
385 386
386 387
386 608
386 607
386 617
386 401
386 403
386 616
387 611
387 610
387 618
387 401
387 403
387 616
389 392
389 391
389 390
390 392
390 391
391 392
391 410
391 402
391 404
391 409
392 411
392 402
392 404
392 409
394 395
395 397
395 396
396 397
396 398
397 399
398 403
399 404
400 402
400 401
401 402
401 403
402 404
405 406
407 410
408 411
412 413
414 416
415 417
418 419
419 421
419 420
420 421
420 424
420 423
420 422
421 427
421 426
421 425
422 424
422 423
422 429
423 424
423 601
423 600
423 621
423 440
423 442
423 451
423 453
423 462
423 464
423 473
423 475
423 484
423 486
423 495
423 497
423 506
423 508
423 517
423 519
423 528
423 530
423 539
423 541
423 550
423 552
423 561
423 563
423 620
424 604
424 603
424 622
424 440
424 442
424 451
424 453
424 462
424 464
424 473
424 475
424 484
424 486
424 495
424 497
424 506
424 508
424 517
424 519
424 528
424 530
424 539
424 541
424 550
424 552
424 561
424 563
424 620
425 427
425 426
425 434
426 427
426 574
426 573
426 572
426 441
426 443
426 452
426 454
426 463
426 465
426 474
426 476
426 485
426 487
426 496
426 498
426 507
426 509
426 518
426 520
426 529
426 531
426 540
426 542
426 551
426 553
426 562
426 564
426 571
427 577
427 576
427 575
427 441
427 443
427 452
427 454
427 463
427 465
427 474
427 476
427 485
427 487
427 496
427 498
427 507
427 509
427 518
427 520
427 529
427 531
427 540
427 542
427 551
427 553
427 562
427 564
427 571
428 431
428 430
428 429
429 431
429 430
430 431
430 608
430 607
430 624
430 445
430 447
430 456
430 458
430 467
430 469
430 478
430 480
430 489
430 491
430 500
430 502
430 511
430 513
430 522
430 524
430 533
430 535
430 544
430 546
430 555
430 557
430 566
430 568
430 623
431 611
431 610
431 625
431 445
431 447
431 456
431 458
431 467
431 469
431 478
431 480
431 489
431 491
431 500
431 502
431 511
431 513
431 522
431 524
431 533
431 535
431 544
431 546
431 555
431 557
431 566
431 568
431 623
433 436
433 435
433 434
434 436
434 435
435 436
435 581
435 580
435 579
435 446
435 448
435 457
435 459
435 468
435 470
435 479
435 481
435 490
435 492
435 501
435 503
435 512
435 514
435 523
435 525
435 534
435 536
435 545
435 547
435 556
435 558
435 567
435 569
435 578
436 584
436 583
436 582
436 446
436 448
436 457
436 459
436 468
436 470
436 479
436 481
436 490
436 492
436 501
436 503
436 512
436 514
436 523
436 525
436 534
436 536
436 545
436 547
436 556
436 558
436 567
436 569
436 578
438 439
439 441
439 440
440 441
440 442
441 443
442 447
443 448
444 446
444 445
445 446
445 447
446 448
449 450
450 452
450 451
451 452
451 453
452 454
453 458
454 459
455 457
455 456
456 457
456 458
457 459
460 461
461 463
461 462
462 463
462 464
463 465
464 469
465 470
466 468
466 467
467 468
467 469
468 470
471 472
472 474
472 473
473 474
473 475
474 476
475 480
476 481
477 479
477 478
478 479
478 480
479 481
482 483
483 485
483 484
484 485
484 486
485 487
486 491
487 492
488 490
488 489
489 490
489 491
490 492
493 494
494 496
494 495
495 496
495 497
496 498
497 502
498 503
499 501
499 500
500 501
500 502
501 503
504 505
505 507
505 506
506 507
506 508
507 509
508 513
509 514
510 512
510 511
511 512
511 513
512 514
515 516
516 518
516 517
517 518
517 519
518 520
519 524
520 525
521 523
521 522
522 523
522 524
523 525
526 527
527 529
527 528
528 529
528 530
529 531
530 535
531 536
532 534
532 533
533 534
533 535
534 536
537 538
538 540
538 539
539 540
539 541
540 542
541 546
542 547
543 545
543 544
544 545
544 546
545 547
548 549
549 551
549 550
550 551
550 552
551 553
552 557
553 558
554 556
554 555
555 556
555 557
556 558
559 560
560 562
560 561
561 562
561 563
562 564
563 568
564 569
565 567
565 566
566 567
566 568
567 569
570 571
572 574
572 573
572 579
573 574
573 587
573 586
574 588
574 586
575 577
575 576
575 582
576 577
576 714
577 714
579 581
579 580
580 581
580 589
581 590
582 584
582 583
583 584
585 586
587 589
588 590
591 592
593 595
594 596
597 598
599 601
599 600
599 606
600 601
600 614
600 621
600 716
601 614
601 621
601 716
602 604
602 603
602 609
603 604
603 615
603 622
603 630
603 629
603 628
603 627
604 615
604 622
604 633
604 632
604 631
604 627
606 608
606 607
607 608
607 617
607 624
607 717
608 617
608 624
608 717
609 611
609 610
610 611
610 618
610 625
610 637
610 636
610 635
610 634
611 618
611 625
611 640
611 639
611 638
611 634
612 613
614 617
615 618
619 620
621 624
622 625
626 627
628 630
628 629
628 635
629 630
629 647
629 658
629 668
629 679
629 721
630 647
630 658
630 668
630 679
630 721
631 633
631 632
631 638
632 633
632 685
632 648
632 659
632 669
632 680
632 684
633 686
633 648
633 659
633 669
633 680
633 684
635 637
635 636
636 637
636 654
636 660
636 675
636 681
637 654
637 660
637 675
637 681
638 640
638 639
639 640
639 687
639 655
639 661
639 676
639 682
640 688
640 655
640 661
640 676
640 682
641 642
643 645
643 644
643 650
644 645
644 712
645 712
646 648
646 647
646 653
647 648
647 658
647 657
648 659
648 657
650 652
650 651
651 652
653 655
653 654
654 655
654 660
655 661
656 657
658 660
659 661
662 663
664 666
664 665
664 671
665 666
665 710
666 710
667 669
667 668
667 674
668 669
668 679
668 678
669 680
669 678
671 673
671 672
672 673
674 676
674 675
675 676
675 681
676 682
677 678
679 681
680 682
683 684
685 687
686 688
689 690
691 693
692 694
695 696
697 698
699 700
701 703
702 704
705 706
707 708
709 710
711 712
713 714
715 716
718 719
720 721
722 723
